NAME : ClusterId_1021 
COMMENT : (Gillet and Johnson) 
TYPE : CVRP 
DIMENSION : 20 
EDGE_WEIGHT_TYPE : EUC_2D 
CAPACITY : 500 
NODE_COORD_SECTION 
1021 4705 4514 
171 3801 4715 
245 3928 4618 
436 4433 4741 
33 4733 4860 
315 3878 4187 
739 4403 4617 
438 4562 4630 
105 4167 4400 
478 5011 4834 
454 4941 4659 
580 4616 4425 
774 4475 4328 
876 4675 4391 
277 5054 4579 
343 5013 4351 
382 4491 4047 
241 5034 4199 
288 4607 3980 
486 4650 3916 
DEMAND_SECTION 
1021 1139
171 39
245 33
436 56
33 47
315 42
739 41
438 52
105 48
478 30
454 51
580 38
774 28
876 32
277 56
343 37
382 43
241 52
288 55
486 45
DEPOT_SECTION 
1021
 -1
EOF